(set-info :source |printed by MathSAT|)
(declare-fun |.x{527}| () Int)
(declare-fun |.x{1573}| () Int)
(declare-fun |.x{528}| () Int)
(declare-fun |.x{1574}| () Int)
(declare-fun |.x{529}| () Int)
(declare-fun |.x{1575}| () Int)
(declare-fun |.x{530}| () Int)
(declare-fun |.x{1576}| () Int)
(declare-fun |.x{531}| () Int)
(declare-fun |.x{1577}| () Int)
(declare-fun |.x{532}| () Int)
(declare-fun |.x{1578}| () Int)
(declare-fun |.x{533}| () Int)
(declare-fun |.x{1579}| () Int)
(declare-fun |.x{534}| () Int)
(declare-fun |.x{1580}| () Int)
(declare-fun |.x{535}| () Int)
(declare-fun |.x{1581}| () Int)
(declare-fun |.x{536}| () Int)
(declare-fun |.x{1582}| () Int)
(declare-fun |.x{537}| () Int)
(declare-fun |.x{1583}| () Int)
(declare-fun |.x{538}| () Int)
(declare-fun |.x{1584}| () Int)
(declare-fun |.x{539}| () Int)
(declare-fun |.x{1585}| () Int)
(declare-fun |.x{540}| () (Array Int Int))
(declare-fun |.x{1586}| () (Array Int Int))
(declare-fun |.x{541}| () (Array Int Int))
(declare-fun |.x{1587}| () (Array Int Int))
(declare-fun |.x{542}| () Int)
(declare-fun |.x{1588}| () Int)
(declare-fun |.x{543}| () (Array Int Int))
(declare-fun |.x{1589}| () (Array Int Int))
(declare-fun |.x{544}| () (Array Int Int))
(declare-fun |.x{1590}| () (Array Int Int))
(declare-fun |.x{545}| () Int)
(declare-fun |.x{1591}| () Int)
(declare-fun |.x{546}| () Int)
(declare-fun |.x{1592}| () Int)
(declare-fun |.x{547}| () Int)
(declare-fun |.x{1593}| () Int)
(declare-fun |.x{548}| () Int)
(declare-fun |.x{1594}| () Int)
(declare-fun |.x{549}| () Int)
(declare-fun |.x{1595}| () Int)
(declare-fun |.x{596}| () Int)
(declare-fun |.x{1596}| () Int)
(declare-fun |.x{551}| () Int)
(declare-fun |.x{1597}| () Int)
(declare-fun |.x{552}| () Int)
(declare-fun |.x{1598}| () Int)
(declare-fun |.x{553}| () Int)
(declare-fun |.x{1599}| () Int)
(declare-fun |.x{554}| () Int)
(declare-fun |.x{1600}| () Int)
(declare-fun |.x{555}| () Int)
(declare-fun |.x{1601}| () Int)
(declare-fun |.x{556}| () Int)
(declare-fun |.x{1602}| () Int)
(declare-fun |.x{557}| () Int)
(declare-fun |.x{1603}| () Int)
(declare-fun |.x{558}| () Int)
(declare-fun |.x{1604}| () Int)
(declare-fun |.x{559}| () Int)
(declare-fun |.x{1605}| () Int)
(declare-fun |.x{560}| () Int)
(declare-fun |.x{1606}| () Int)
(declare-fun |.x{561}| () Int)
(declare-fun |.x{1607}| () Int)
(declare-fun |.x{562}| () Int)
(declare-fun |.x{1608}| () Int)
(declare-fun |.x{563}| () Int)
(declare-fun |.x{1609}| () Int)
(declare-fun |.x{564}| () Int)
(declare-fun |.x{1610}| () Int)
(declare-fun |.x{565}| () Int)
(declare-fun |.x{1611}| () Int)
(declare-fun |.x{566}| () Int)
(declare-fun |.x{1612}| () Int)
(declare-fun |.x{613}| () Int)
(declare-fun |.x{1613}| () Int)
(declare-fun |.x{568}| () Int)
(declare-fun |.x{1614}| () Int)
(declare-fun |.x{569}| () Int)
(declare-fun |.x{1615}| () Int)
(declare-fun |.x{570}| () Int)
(declare-fun |.x{1616}| () Int)
(declare-fun |.x{571}| () Int)
(declare-fun |.x{1617}| () Int)
(declare-fun |.x{572}| () Bool)
(declare-fun |.x{1526}| () Bool)
(declare-fun |.loc{4}| () Bool)
(declare-fun |.loc{7}| () Bool)
(declare-fun |.loc{5}| () Bool)
(declare-fun |.loc{8}| () Bool)
(declare-fun |.loc{6}| () Bool)
(declare-fun |.loc{9}| () Bool)
(declare-fun |.x{194}| () (Array Int Int))
(declare-fun |.x{302}| () Int)
(define-fun .def_100 () Bool (! |.loc{4}| :next |.loc{7}|))
(define-fun .def_277 () Bool (not .def_100))
(define-fun .def_102 () Bool (! |.loc{5}| :next |.loc{8}|))
(define-fun .def_113 () Bool (not .def_102))
(define-fun .def_467 () Bool (and .def_113 .def_277))
(define-fun .def_104 () Bool (! |.loc{6}| :next |.loc{9}|))
(define-fun .def_425 () Bool (not .def_104))
(define-fun .def_468 () Bool (and .def_425 .def_467))
(define-fun .def_18 () Int (! |.x{532}| :next |.x{1578}|))
(define-fun .def_16 () Int (! |.x{531}| :next |.x{1577}|))
(define-fun .def_461 () Bool (= .def_16 .def_18))
(define-fun .def_14 () Int (! |.x{530}| :next |.x{1576}|))
(define-fun .def_12 () Int (! |.x{529}| :next |.x{1575}|))
(define-fun .def_460 () Bool (= .def_12 .def_14))
(define-fun .def_462 () Bool (and .def_460 .def_461))
(define-fun .def_36 () (Array Int Int) (! |.x{541}| :next |.x{1587}|))
(define-fun .def_34 () (Array Int Int) (! |.x{540}| :next |.x{1586}|))
(define-fun .def_459 () Bool (= .def_34 .def_36))
(define-fun .def_463 () Bool (and .def_459 .def_462))
(define-fun .def_28 () Int (! |.x{537}| :next |.x{1583}|))
(define-fun .def_26 () Int (! |.x{536}| :next |.x{1582}|))
(define-fun .def_458 () Bool (= .def_26 .def_28))
(define-fun .def_464 () Bool (and .def_458 .def_463))
(define-fun .def_42 () (Array Int Int) (! |.x{544}| :next |.x{1590}|))
(define-fun .def_40 () (Array Int Int) (! |.x{543}| :next |.x{1589}|))
(define-fun .def_457 () Bool (= .def_40 .def_42))
(define-fun .def_465 () Bool (and .def_457 .def_464))
(define-fun .def_98 () Bool (! |.x{572}| :next |.x{1526}|))
(define-fun .def_456 () Bool (not .def_98))
(define-fun .def_466 () Bool (and .def_456 .def_465))
(define-fun .def_469 () Bool (! (and .def_466 .def_468) :init true))
(define-fun .def_64 () Int (! |.x{555}| :next |.x{1601}|))
(define-fun .def_453 () Bool (= .def_64 |.x{1601}|))
(define-fun .def_60 () Int (! |.x{553}| :next |.x{1599}|))
(define-fun .def_451 () Bool (= .def_60 |.x{1599}|))
(define-fun .def_48 () Int (! |.x{547}| :next |.x{1593}|))
(define-fun .def_449 () Bool (= .def_48 |.x{1593}|))
(define-fun .def_447 () Bool (= .def_42 |.x{1590}|))
(define-fun .def_38 () Int (! |.x{542}| :next |.x{1588}|))
(define-fun .def_445 () Bool (= .def_38 |.x{1588}|))
(define-fun .def_443 () Bool (= .def_36 |.x{1587}|))
(define-fun .def_32 () Int (! |.x{539}| :next |.x{1585}|))
(define-fun .def_441 () Bool (= .def_32 |.x{1585}|))
(define-fun .def_30 () Int (! |.x{538}| :next |.x{1584}|))
(define-fun .def_439 () Bool (= .def_30 |.x{1584}|))
(define-fun .def_437 () Bool (= .def_28 |.x{1583}|))
(define-fun .def_24 () Int (! |.x{535}| :next |.x{1581}|))
(define-fun .def_435 () Bool (= .def_24 |.x{1581}|))
(define-fun .def_22 () Int (! |.x{534}| :next |.x{1580}|))
(define-fun .def_433 () Bool (= .def_22 |.x{1580}|))
(define-fun .def_20 () Int (! |.x{533}| :next |.x{1579}|))
(define-fun .def_431 () Bool (= .def_20 |.x{1579}|))
(define-fun .def_429 () Bool (= .def_18 |.x{1578}|))
(define-fun .def_427 () Bool (= .def_14 |.x{1576}|))
(define-fun .def_8 () Int (! |.x{527}| :next |.x{1573}|))
(define-fun .def_423 () Bool (= .def_8 |.x{1573}|))
(define-fun .def_10 () Int (! |.x{528}| :next |.x{1574}|))
(define-fun .def_422 () Bool (= .def_10 |.x{1574}|))
(define-fun .def_424 () Bool (and .def_422 .def_423))
(define-fun .def_426 () Bool (and .def_424 .def_425))
(define-fun .def_428 () Bool (and .def_426 .def_427))
(define-fun .def_430 () Bool (and .def_428 .def_429))
(define-fun .def_432 () Bool (and .def_430 .def_431))
(define-fun .def_434 () Bool (and .def_432 .def_433))
(define-fun .def_436 () Bool (and .def_434 .def_435))
(define-fun .def_438 () Bool (and .def_436 .def_437))
(define-fun .def_440 () Bool (and .def_438 .def_439))
(define-fun .def_442 () Bool (and .def_440 .def_441))
(define-fun .def_444 () Bool (and .def_442 .def_443))
(define-fun .def_446 () Bool (and .def_444 .def_445))
(define-fun .def_448 () Bool (and .def_446 .def_447))
(define-fun .def_450 () Bool (and .def_448 .def_449))
(define-fun .def_452 () Bool (and .def_450 .def_451))
(define-fun .def_454 () Bool (and .def_452 .def_453))
(define-fun .def_164 () Bool (= |.x{1605}| |.x{1616}|))
(define-fun .def_161 () Bool (= |.x{1597}| |.x{1615}|))
(define-fun .def_159 () Bool (= |.x{1611}| |.x{1615}|))
(define-fun .def_158 () Bool (= |.x{1605}| |.x{1609}|))
(define-fun .def_160 () Bool (and .def_158 .def_159))
(define-fun .def_162 () Bool (and .def_160 .def_161))
(define-fun .def_157 () Bool (= |.x{1611}| |.x{1613}|))
(define-fun .def_163 () Bool (and .def_157 .def_162))
(define-fun .def_165 () Bool (and .def_163 .def_164))
(define-fun .def_156 () Bool (= |.x{1596}| |.x{1609}|))
(define-fun .def_166 () Bool (and .def_156 .def_165))
(define-fun .def_392 () Bool (or .def_98 .def_166))
(define-fun .def_96 () Int (! |.x{571}| :next |.x{1617}|))
(define-fun .def_109 () Bool (= |.x{1596}| .def_96))
(define-fun .def_76 () Int (! |.x{561}| :next |.x{1607}|))
(define-fun .def_108 () Bool (= .def_76 |.x{1613}|))
(define-fun .def_110 () Bool (and .def_108 .def_109))
(define-fun .def_111 () Bool (or .def_98 .def_110))
(define-fun .def_344 () Bool (and .def_100 .def_111))
(define-fun .def_345 () Bool (and .def_113 .def_344))
(define-fun .def_129 () Bool (= .def_16 |.x{1577}|))
(define-fun .def_346 () Bool (and .def_129 .def_345))
(define-fun .def_393 () Bool (and .def_346 .def_392))
(define-fun .def_136 () Bool (= .def_34 |.x{1586}|))
(define-fun .def_394 () Bool (and .def_136 .def_393))
(define-fun .def_323 () Bool (and .def_159 .def_161))
(define-fun .def_324 () Bool (and .def_158 .def_323))
(define-fun .def_325 () Bool (and .def_164 .def_324))
(define-fun .def_388 () Bool (or .def_98 .def_325))
(define-fun .def_94 () Int (! |.x{570}| :next |.x{1616}|))
(define-fun .def_310 () (Array Int Int) (store .def_34 .def_94 0))
(define-fun .def_311 () Bool (= |.x{1586}| .def_310))
(define-fun .def_262 () Bool (= |.x{1577}| 0))
(define-fun .def_312 () Bool (and .def_262 .def_311))
(define-fun .def_313 () Bool (or .def_98 .def_312))
(define-fun .def_52 () Int (! |.x{549}| :next |.x{1595}|))
(define-fun .def_307 () Bool (= .def_52 |.x{1595}|))
(define-fun .def_54 () Int (! |.x{596}| :next |.x{1596}|))
(define-fun .def_305 () Bool (= .def_54 |.x{1596}|))
(define-fun .def_80 () Int (! |.x{563}| :next |.x{1609}|))
(define-fun .def_303 () Bool (= .def_80 |.x{1609}|))
(define-fun .def_78 () Int (! |.x{562}| :next |.x{1608}|))
(define-fun .def_302 () Bool (= .def_78 |.x{1608}|))
(define-fun .def_304 () Bool (and .def_302 .def_303))
(define-fun .def_306 () Bool (and .def_304 .def_305))
(define-fun .def_308 () Bool (and .def_306 .def_307))
(define-fun .def_309 () Bool (and .def_102 .def_308))
(define-fun .def_314 () Bool (and .def_309 .def_313))
(define-fun .def_387 () Bool (and .def_277 .def_314))
(define-fun .def_389 () Bool (and .def_387 .def_388))
(define-fun .def_88 () Int (! |.x{613}| :next |.x{1613}|))
(define-fun .def_329 () Bool (= .def_88 |.x{1613}|))
(define-fun .def_390 () Bool (and .def_329 .def_389))
(define-fun .def_84 () Int (! |.x{565}| :next |.x{1611}|))
(define-fun .def_331 () Bool (= .def_84 |.x{1611}|))
(define-fun .def_391 () Bool (and .def_331 .def_390))
(define-fun .def_395 () Bool (or .def_391 .def_394))
(define-fun .def_122 () Bool (= |.x{1616}| 0))
(define-fun .def_123 () Bool (not .def_122))
(define-fun .def_383 () Bool (or .def_98 .def_123))
(define-fun .def_125 () Bool (= |.x{1597}| 0))
(define-fun .def_126 () Bool (not .def_125))
(define-fun .def_384 () Bool (or .def_126 .def_383))
(define-fun .def_118 () Bool (= |.x{1577}| 1))
(define-fun .def_381 () Bool (not .def_118))
(define-fun .def_382 () Bool (or .def_98 .def_381))
(define-fun .def_385 () Bool (and .def_382 .def_384))
(define-fun .def_386 () Bool (and |.x{1526}| .def_385))
(define-fun .def_396 () Bool (and .def_386 .def_395))
(define-fun .def_62 () Int (! |.x{554}| :next |.x{1600}|))
(define-fun .def_152 () Bool (= .def_62 |.x{1600}|))
(define-fun .def_397 () Bool (and .def_152 .def_396))
(define-fun .def_86 () Int (! |.x{566}| :next |.x{1612}|))
(define-fun .def_179 () Bool (= .def_86 |.x{1612}|))
(define-fun .def_398 () Bool (and .def_179 .def_397))
(define-fun .def_371 () Bool (= |.x{1612}| 0))
(define-fun .def_372 () Bool (or |.x{1526}| .def_371))
(define-fun .def_368 () Bool (= |.x{1600}| |.x{1612}|))
(define-fun .def_369 () Bool (or |.x{1526}| .def_368))
(define-fun .def_365 () Bool (and .def_100 .def_308))
(define-fun .def_366 () Bool (and .def_102 .def_365))
(define-fun .def_367 () Bool (and .def_313 .def_366))
(define-fun .def_370 () Bool (and .def_367 .def_369))
(define-fun .def_373 () Bool (and .def_370 .def_372))
(define-fun .def_142 () Bool (= .def_98 |.x{1526}|))
(define-fun .def_374 () Bool (and .def_142 .def_373))
(define-fun .def_267 () Bool (= .def_94 |.x{1616}|))
(define-fun .def_375 () Bool (and .def_267 .def_374))
(define-fun .def_92 () Int (! |.x{569}| :next |.x{1615}|))
(define-fun .def_269 () Bool (= .def_92 |.x{1615}|))
(define-fun .def_376 () Bool (and .def_269 .def_375))
(define-fun .def_72 () Int (! |.x{559}| :next |.x{1605}|))
(define-fun .def_271 () Bool (= .def_72 |.x{1605}|))
(define-fun .def_377 () Bool (and .def_271 .def_376))
(define-fun .def_56 () Int (! |.x{551}| :next |.x{1597}|))
(define-fun .def_273 () Bool (= .def_56 |.x{1597}|))
(define-fun .def_378 () Bool (and .def_273 .def_377))
(define-fun .def_379 () Bool (and .def_329 .def_378))
(define-fun .def_380 () Bool (and .def_331 .def_379))
(define-fun .def_399 () Bool (or .def_380 .def_398))
(define-fun .def_132 () Bool (not |.loc{7}|))
(define-fun .def_363 () Bool (and |.loc{9}| .def_132))
(define-fun .def_254 () Bool (not |.loc{8}|))
(define-fun .def_364 () Bool (and .def_254 .def_363))
(define-fun .def_400 () Bool (and .def_364 .def_399))
(define-fun .def_333 () Bool (and |.loc{7}| .def_314))
(define-fun .def_334 () Bool (and |.loc{8}| .def_333))
(define-fun .def_355 () Bool (and |.x{1526}| .def_334))
(define-fun .def_148 () Bool (not |.loc{9}|))
(define-fun .def_356 () Bool (and .def_148 .def_355))
(define-fun .def_357 () Bool (and .def_152 .def_356))
(define-fun .def_358 () Bool (and .def_277 .def_357))
(define-fun .def_359 () Bool (and .def_98 .def_358))
(define-fun .def_360 () Bool (and .def_179 .def_359))
(define-fun .def_361 () Bool (and .def_329 .def_360))
(define-fun .def_362 () Bool (and .def_331 .def_361))
(define-fun .def_401 () Bool (or .def_362 .def_400))
(define-fun .def_347 () Bool (and |.loc{8}| .def_346))
(define-fun .def_348 () Bool (and .def_132 .def_347))
(define-fun .def_349 () Bool (and |.x{1526}| .def_348))
(define-fun .def_350 () Bool (and .def_136 .def_349))
(define-fun .def_351 () Bool (and .def_148 .def_350))
(define-fun .def_352 () Bool (and .def_152 .def_351))
(define-fun .def_353 () Bool (and .def_98 .def_352))
(define-fun .def_354 () Bool (and .def_179 .def_353))
(define-fun .def_402 () Bool (or .def_354 .def_401))
(define-fun .def_335 () Bool (and .def_142 .def_334))
(define-fun .def_336 () Bool (and .def_148 .def_335))
(define-fun .def_337 () Bool (and .def_152 .def_336))
(define-fun .def_338 () Bool (and .def_277 .def_337))
(define-fun .def_202 () Bool (and .def_122 .def_125))
(define-fun .def_203 () Bool (or |.x{1526}| .def_202))
(define-fun .def_339 () Bool (and .def_203 .def_338))
(define-fun .def_326 () Bool (or |.x{1526}| .def_325))
(define-fun .def_340 () Bool (and .def_326 .def_339))
(define-fun .def_341 () Bool (and .def_179 .def_340))
(define-fun .def_342 () Bool (and .def_329 .def_341))
(define-fun .def_343 () Bool (and .def_331 .def_342))
(define-fun .def_403 () Bool (or .def_343 .def_402))
(define-fun .def_119 () Bool (or |.x{1526}| .def_118))
(define-fun .def_315 () Bool (and .def_119 .def_314))
(define-fun .def_316 () Bool (and |.loc{7}| .def_315))
(define-fun .def_124 () Bool (or |.x{1526}| .def_123))
(define-fun .def_127 () Bool (or .def_124 .def_126))
(define-fun .def_317 () Bool (and .def_127 .def_316))
(define-fun .def_318 () Bool (and |.loc{8}| .def_317))
(define-fun .def_319 () Bool (and .def_142 .def_318))
(define-fun .def_320 () Bool (and .def_148 .def_319))
(define-fun .def_321 () Bool (and .def_152 .def_320))
(define-fun .def_322 () Bool (and .def_277 .def_321))
(define-fun .def_327 () Bool (and .def_322 .def_326))
(define-fun .def_328 () Bool (and .def_179 .def_327))
(define-fun .def_330 () Bool (and .def_328 .def_329))
(define-fun .def_332 () Bool (and .def_330 .def_331))
(define-fun .def_404 () Bool (or .def_332 .def_403))
(define-fun .def_115 () Bool (= .def_12 |.x{1575}|))
(define-fun .def_106 () Bool (= .def_96 |.x{1617}|))
(define-fun .def_299 () Bool (and .def_106 .def_115))
(define-fun .def_300 () Bool (and .def_115 .def_299))
(define-fun .def_134 () Bool (= .def_26 |.x{1582}|))
(define-fun .def_301 () Bool (and .def_134 .def_300))
(define-fun .def_405 () Bool (and .def_301 .def_404))
(define-fun .def_138 () Bool (= .def_40 |.x{1589}|))
(define-fun .def_406 () Bool (and .def_138 .def_405))
(define-fun .def_44 () Int (! |.x{545}| :next |.x{1591}|))
(define-fun .def_140 () Bool (= .def_44 |.x{1591}|))
(define-fun .def_407 () Bool (and .def_140 .def_406))
(define-fun .def_46 () Int (! |.x{546}| :next |.x{1592}|))
(define-fun .def_144 () Bool (= .def_46 |.x{1592}|))
(define-fun .def_408 () Bool (and .def_144 .def_407))
(define-fun .def_50 () Int (! |.x{548}| :next |.x{1594}|))
(define-fun .def_146 () Bool (= .def_50 |.x{1594}|))
(define-fun .def_409 () Bool (and .def_146 .def_408))
(define-fun .def_58 () Int (! |.x{552}| :next |.x{1598}|))
(define-fun .def_150 () Bool (= .def_58 |.x{1598}|))
(define-fun .def_410 () Bool (and .def_150 .def_409))
(define-fun .def_66 () Int (! |.x{556}| :next |.x{1602}|))
(define-fun .def_154 () Bool (= .def_66 |.x{1602}|))
(define-fun .def_411 () Bool (and .def_154 .def_410))
(define-fun .def_68 () Int (! |.x{557}| :next |.x{1603}|))
(define-fun .def_169 () Bool (= .def_68 |.x{1603}|))
(define-fun .def_412 () Bool (and .def_169 .def_411))
(define-fun .def_70 () Int (! |.x{558}| :next |.x{1604}|))
(define-fun .def_171 () Bool (= .def_70 |.x{1604}|))
(define-fun .def_413 () Bool (and .def_171 .def_412))
(define-fun .def_74 () Int (! |.x{560}| :next |.x{1606}|))
(define-fun .def_173 () Bool (= .def_74 |.x{1606}|))
(define-fun .def_414 () Bool (and .def_173 .def_413))
(define-fun .def_175 () Bool (= .def_76 |.x{1607}|))
(define-fun .def_415 () Bool (and .def_175 .def_414))
(define-fun .def_82 () Int (! |.x{564}| :next |.x{1610}|))
(define-fun .def_177 () Bool (= .def_82 |.x{1610}|))
(define-fun .def_416 () Bool (and .def_177 .def_415))
(define-fun .def_90 () Int (! |.x{568}| :next |.x{1614}|))
(define-fun .def_181 () Bool (= .def_90 |.x{1614}|))
(define-fun .def_417 () Bool (and .def_181 .def_416))
(define-fun .def_209 () Bool (= |.x{1617}| 0))
(define-fun .def_286 () Bool (not .def_209))
(define-fun .def_208 () Bool (= |.x{1607}| 0))
(define-fun .def_285 () Bool (not .def_208))
(define-fun .def_287 () Bool (or .def_285 .def_286))
(define-fun .def_288 () Bool (and .def_118 .def_287))
(define-fun .def_289 () Bool (or |.x{1526}| .def_288))
(define-fun .def_280 () Bool (= |.x{302}| 0))
(define-fun .def_259 () Bool (= |.x{1582}| 0))
(define-fun .def_258 () Bool (= |.x{1575}| 0))
(define-fun .def_260 () Bool (and .def_258 .def_259))
(define-fun .def_256 () (Array Int Int) (store .def_34 0 0))
(define-fun .def_257 () Bool (= |.x{194}| .def_256))
(define-fun .def_261 () Bool (and .def_257 .def_260))
(define-fun .def_281 () Bool (and .def_261 .def_280))
(define-fun .def_282 () Bool (or .def_98 .def_281))
(define-fun .def_245 () Bool (<= |.x{1610}| |.x{1585}|))
(define-fun .def_246 () Bool (not .def_245))
(define-fun .def_239 () Bool (= |.x{1599}| |.x{1614}|))
(define-fun .def_237 () Bool (= |.x{1601}| |.x{1603}|))
(define-fun .def_232 () Bool (= |.x{1593}| |.x{1604}|))
(define-fun .def_228 () (Array Int Int) (store .def_40 |.x{1610}| |.x{1606}|))
(define-fun .def_229 () Bool (= |.x{1589}| .def_228))
(define-fun .def_227 () Bool (= |.x{1602}| 0))
(define-fun .def_230 () Bool (and .def_227 .def_229))
(define-fun .def_225 () (Array Int Int) (store |.x{194}| |.x{1610}| 1))
(define-fun .def_226 () Bool (= |.x{1586}| .def_225))
(define-fun .def_231 () Bool (and .def_226 .def_230))
(define-fun .def_233 () Bool (and .def_231 .def_232))
(define-fun .def_224 () Bool (= |.x{1598}| |.x{1614}|))
(define-fun .def_234 () Bool (and .def_224 .def_233))
(define-fun .def_223 () Bool (= |.x{1592}| |.x{1606}|))
(define-fun .def_235 () Bool (and .def_223 .def_234))
(define-fun .def_222 () Bool (= |.x{1602}| |.x{1607}|))
(define-fun .def_236 () Bool (and .def_222 .def_235))
(define-fun .def_238 () Bool (and .def_236 .def_237))
(define-fun .def_240 () Bool (and .def_238 .def_239))
(define-fun .def_221 () Bool (= |.x{1610}| |.x{1617}|))
(define-fun .def_241 () Bool (and .def_221 .def_240))
(define-fun .def_220 () Bool (= |.x{1592}| 4))
(define-fun .def_242 () Bool (and .def_220 .def_241))
(define-fun .def_218 () Bool (= |.x{1591}| |.x{1604}|))
(define-fun .def_243 () Bool (and .def_218 .def_242))
(define-fun .def_217 () Bool (= |.x{1594}| |.x{1603}|))
(define-fun .def_244 () Bool (and .def_217 .def_243))
(define-fun .def_247 () Bool (and .def_244 .def_246))
(define-fun .def_215 () Int (select |.x{194}| |.x{1610}|))
(define-fun .def_216 () Bool (= .def_215 0))
(define-fun .def_248 () Bool (and .def_216 .def_247))
(define-fun .def_212 () Bool (= |.x{1610}| 0))
(define-fun .def_213 () Bool (not .def_212))
(define-fun .def_249 () Bool (and .def_213 .def_248))
(define-fun .def_250 () Bool (or |.x{1526}| .def_249))
(define-fun .def_251 () Bool (and .def_113 .def_250))
(define-fun .def_252 () Bool (and |.loc{7}| .def_251))
(define-fun .def_283 () Bool (and .def_252 .def_282))
(define-fun .def_284 () Bool (and .def_254 .def_283))
(define-fun .def_290 () Bool (and .def_284 .def_289))
(define-fun .def_291 () Bool (and .def_142 .def_290))
(define-fun .def_292 () Bool (and .def_267 .def_291))
(define-fun .def_293 () Bool (and .def_269 .def_292))
(define-fun .def_294 () Bool (and .def_271 .def_293))
(define-fun .def_295 () Bool (and .def_273 .def_294))
(define-fun .def_296 () Bool (and .def_148 .def_295))
(define-fun .def_297 () Bool (and .def_152 .def_296))
(define-fun .def_298 () Bool (and .def_277 .def_297))
(define-fun .def_418 () Bool (or .def_298 .def_417))
(define-fun .def_263 () Bool (and .def_261 .def_262))
(define-fun .def_264 () Bool (or .def_98 .def_263))
(define-fun .def_210 () Bool (and .def_208 .def_209))
(define-fun .def_211 () Bool (or |.x{1526}| .def_210))
(define-fun .def_253 () Bool (and .def_211 .def_252))
(define-fun .def_255 () Bool (and .def_253 .def_254))
(define-fun .def_265 () Bool (and .def_255 .def_264))
(define-fun .def_266 () Bool (and .def_142 .def_265))
(define-fun .def_268 () Bool (and .def_266 .def_267))
(define-fun .def_270 () Bool (and .def_268 .def_269))
(define-fun .def_272 () Bool (and .def_270 .def_271))
(define-fun .def_274 () Bool (and .def_272 .def_273))
(define-fun .def_275 () Bool (and .def_148 .def_274))
(define-fun .def_276 () Bool (and .def_152 .def_275))
(define-fun .def_278 () Bool (and .def_276 .def_277))
(define-fun .def_419 () Bool (or .def_278 .def_418))
(define-fun .def_107 () Bool (and .def_100 .def_106))
(define-fun .def_112 () Bool (and .def_107 .def_111))
(define-fun .def_114 () Bool (and .def_112 .def_113))
(define-fun .def_116 () Bool (and .def_114 .def_115))
(define-fun .def_183 () Bool (and .def_116 .def_129))
(define-fun .def_184 () Bool (and |.loc{8}| .def_183))
(define-fun .def_185 () Bool (and .def_132 .def_184))
(define-fun .def_186 () Bool (and .def_134 .def_185))
(define-fun .def_187 () Bool (and .def_136 .def_186))
(define-fun .def_188 () Bool (and .def_138 .def_187))
(define-fun .def_189 () Bool (and .def_140 .def_188))
(define-fun .def_190 () Bool (and .def_142 .def_189))
(define-fun .def_191 () Bool (and .def_144 .def_190))
(define-fun .def_192 () Bool (and .def_146 .def_191))
(define-fun .def_193 () Bool (and .def_148 .def_192))
(define-fun .def_194 () Bool (and .def_150 .def_193))
(define-fun .def_195 () Bool (and .def_152 .def_194))
(define-fun .def_196 () Bool (and .def_154 .def_195))
(define-fun .def_167 () Bool (or |.x{1526}| .def_166))
(define-fun .def_197 () Bool (and .def_167 .def_196))
(define-fun .def_198 () Bool (and .def_169 .def_197))
(define-fun .def_199 () Bool (and .def_171 .def_198))
(define-fun .def_200 () Bool (and .def_173 .def_199))
(define-fun .def_201 () Bool (and .def_175 .def_200))
(define-fun .def_204 () Bool (and .def_201 .def_203))
(define-fun .def_205 () Bool (and .def_177 .def_204))
(define-fun .def_206 () Bool (and .def_179 .def_205))
(define-fun .def_207 () Bool (and .def_181 .def_206))
(define-fun .def_420 () Bool (or .def_207 .def_419))
(define-fun .def_120 () Bool (and .def_116 .def_119))
(define-fun .def_128 () Bool (and .def_120 .def_127))
(define-fun .def_130 () Bool (and .def_128 .def_129))
(define-fun .def_131 () Bool (and |.loc{8}| .def_130))
(define-fun .def_133 () Bool (and .def_131 .def_132))
(define-fun .def_135 () Bool (and .def_133 .def_134))
(define-fun .def_137 () Bool (and .def_135 .def_136))
(define-fun .def_139 () Bool (and .def_137 .def_138))
(define-fun .def_141 () Bool (and .def_139 .def_140))
(define-fun .def_143 () Bool (and .def_141 .def_142))
(define-fun .def_145 () Bool (and .def_143 .def_144))
(define-fun .def_147 () Bool (and .def_145 .def_146))
(define-fun .def_149 () Bool (and .def_147 .def_148))
(define-fun .def_151 () Bool (and .def_149 .def_150))
(define-fun .def_153 () Bool (and .def_151 .def_152))
(define-fun .def_155 () Bool (and .def_153 .def_154))
(define-fun .def_168 () Bool (and .def_155 .def_167))
(define-fun .def_170 () Bool (and .def_168 .def_169))
(define-fun .def_172 () Bool (and .def_170 .def_171))
(define-fun .def_174 () Bool (and .def_172 .def_173))
(define-fun .def_176 () Bool (and .def_174 .def_175))
(define-fun .def_178 () Bool (and .def_176 .def_177))
(define-fun .def_180 () Bool (and .def_178 .def_179))
(define-fun .def_182 () Bool (and .def_180 .def_181))
(define-fun .def_421 () Bool (or .def_182 .def_420))
(define-fun .def_455 () Bool (! (and .def_421 .def_454) :trans true))
(define-fun .def_470 () Bool (and .def_104 .def_467))
(define-fun .def_471 () Bool (and .def_98 .def_470))
(define-fun .def_472 () Bool (! (not .def_471) :invar-property 0))
(assert true)
